0000000000000000
0000000000000000
0001111111100000
0001111111110000
0000000001110000
0000000001111000
0000000000111000
0000000000111000
0000000000111000
0000000000111000
0000000000111000
0000000001111000
0000000011110000
0001111111110000
0001111111000000
0000000000000000
